AES/1_2_8/ssaes_r1-20_c2_rw1_e8_f0_k1-20_aes_1base_box_aes_mc_bidirectional/ExperimentMinisat_r5_k13cnf_2011-12-02-165820/Result
WARNING: for repeatability, setting FPU to use double precision
============================[ Problem Statistics ]=============================
|                                                                             |
|  Number of variables:           448                                         |
|  Number of clauses:           66994                                         |
|  Parse time:                   0.04 s                                       |
|  Eliminated clauses:           0.00 Mb                                      |
|  Simplification time:          2.26 s                                       |
|                                                                             |
=============================[ Search Statistics ]==============================
| Conflicts  |          ORIGINAL         |          LEARNT          | Progress |
|            |    Vars  Clauses Literals |    Limit  Clauses Lit/Cl |          |
================================================================================
|        100 |     280    66578   453412 |    24411      100     16 | 16.072 % |
|        250 |     280    66578   453412 |    26853      250     17 | 16.072 % |
|        475 |     280    66578   453412 |    29538      475     19 | 16.072 % |
|        812 |     280    66578   453412 |    32492      812     19 | 16.072 % |
|       1318 |     280    66578   453412 |    35741     1318     18 | 16.072 % |
|       2077 |     280    66578   453412 |    39315     2077     18 | 16.072 % |
|       3216 |     280    66578   453412 |    43247     3216     18 | 16.072 % |
|       4924 |     280    66578   453412 |    47571     4924     17 | 16.072 % |
|       7486 |     280    66578   453412 |    52329     7486     17 | 16.072 % |
|      11330 |     280    66578   453412 |    57562    11330     16 | 16.072 % |
|      17096 |     280    66578   453412 |    63318    17096     16 | 16.072 % |
|      25745 |     280    66578   453412 |    69650    25745     16 | 16.072 % |
|      38719 |     280    66578   453412 |    76615    38719     15 | 16.072 % |
===============================================================================
restarts              : 142
conflicts             : 47788          (1581 /sec)
decisions             : 50739          (0.00 % random) (1679 /sec)
propagations          : 6932540        (229422 /sec)
conflict literals     : 716505         (45.47 % deleted)
Memory used           : 18.00 MB
CPU time              : 30.2174 s

SATISFIABLE
